c ====================[ Coprocessor 7.1.0                    v7.1.0-dirty ]================================
c | Norbert Manthey. The use of the tool is limited to research only!                                     |
c | Contributors:                                                                                         |
c |     Kilian Gebhard                                                                                    |
c |     Lucas Kahlert, Franziska Krüger, Aaron Stephan                                                    |
c ============================[ Problem Statistics ]=======================================================
c |                                                                                                       |
c |  Number of variables:           340                                                                  |
c |  Number of clauses:            1870                                                                   |
c |  Parse time:                   0.00 s                                                                 |
c [STAT] CP3 0.013448 s-ppTime, 0 s-ipTime, 0.0134467 s-ppwTime, 0 s-ipwTime, 9 MB, ok 0.00069 s-ohTime, 
c [STAT] CP3(2) 2868 cls, 0 learnts, -998 rem-cls, 0 rem-learnts, 
c [STAT] UP 6e-06 s, 0 units, 0 cls, 0 lits
c [STAT] SuSi(1) 0.000576 s, 1 cls,  with 4 lits, 0 strengthed 
c [STAT] SuSi(2) 15938 subs-steps, 24548 strenght-steps, 0 increases, 0.00122s strengthening 
c [STAT] EE 0.000676 s, 0 steps 0 ee-lits 0 removedCls, 0 removedSubCls,
c [STAT] EE-gate 4.6e-05 s, 0 steps, 0.00053 extractGateTime, 
c [STAT] BVE(1) 0.000803 s, 0.000146 s spent on subsimp, 43 vars tested, 43 anticipations, 593 vars skipped, 3238 checks, 
c [STAT] BVE(2) 446 rem cls, with 1376 lits, 0 learnts rem, with 0 lits, 1445 new cls, with 5934 lits, 0 new learnts, with 0 lits, 
c [STAT] BVE(3) 31 vars eliminated, 0 units enqueued, 0 BC removed, with 0 lits, 0 blocked learnts removed, with 0 lits, 
c [STAT] BVE(4) 0 gateDefs, 0 usedGates, 0 gateSeconds, 
c [STAT] BVE(5) 30 incElims, 0 keepElims, 1 decElims, 999 totalAdds,
c [STAT] UNHIDE 0.001168 s, 0 cls, 0 totalLits, 0 lits 
c [STAT] UNHIDE(2) 0 prSecs, 0 prSteps, 0 L1units, 0 L2units, 0 L3units, 0 L4units, 0 L5units, 
c [STAT] UNHIDE(3) 0 EE-checks, 0 EE-cands, 0 EEs 
c [STAT] XOR 0.001382s, 0.001297 parse-s, 6.1e-05 reason-s, 
c [STAT] XOR(2) 0 xors, 0 subXors, 0 resXors, 0 clauses, 0 resClauses, 0 resTauts, 0 resStrength, 4734 findChecks, 
c [STAT] XOR(3) 0 steps, 680 empties, 0 listUnits, 0 useLists, 0 xorUnits, 0 eqs, 
c [STAT] XOR(4) 2865 participating, 0.864253 ratio, 0 simDecisions, 0 xorProps, 0 clsProps, 
c [STAT] BCE 0.001751 seconds, 20652 steps, 1236 testLits, 0 remBCE, 0 BCMs, 0 BCMcands, 0 BCMlits, 
c [STAT] CLE 0 remCLE, 0 cleUnits, 
c [STAT] BCE-CLA 0 seconds, 0 steps, 0 testLits, 0 extClss, 0 extLits, 0 possibles, 
c [STAT] FM 0.004824 s, 0.000204 amo-s, 0.005748 fm-s, 0.00112 amt-s, 0 amos, 0 amts, 0 sameUnits, 0 deducedUnits, 0 propUnits, 0 cls, 0 steps, 29229 searchSteps, 0 addDups, 
c [STAT] FM(2) 0 irregulars, 0 pureAmoLits, 0 diff, 0 discards, 0 addedCs, 0 removedCs, 0 newAmos, 0 discardedNewAmos, 
c [STAT] FM(3) 0 newAmoBinCls, 0 newCls, 0 newAlos, 0 newAlks, 0 duplicates, 0 garbageCollecst, 
c [STAT] FM(4) 4e-06 2PrdTime, 0 2PrAmos, 0 2PrLits, 1e-06 dedAloTime, 0 dedAlos, 
c [STAT] FM(5) time: 0.003311 s,steps: 28901 cards: 0 failed: 4738 extLits: 0 redDegree: 0 probes: 5457 conflictProbes: 0 savedPreCls: 0 savedPostCls: 0 units: 13008
c [STAT] DENSE 31 gaps
c |  Simplification time:          0.01 s                                                                 |
c |                                                                                                       |
c ==============================[ Writing DIMACS ]=========================================================
c =============================[ Writing Undo Info ]=======================================================
c write undo for 259 clauses and 0 units
c preprocessed 0 seconds
c starting sparrow solver
c Instance name       :  /home/lorenz/SAT2018/s2r_bin/tmp/cp_tmpCNF_48212
c Number of variables :  309
c Number of literals  :  618
c Number of Clauses   :  2868
c MaxNumOccurences    :  69
c MaxClauseSize       :  5
c MinClauseSize       :  3
c Ratio               :  9.2816
c Parameter setting   :  5 SAT

c Sparrow 2014 Parameteres: 
c c1                  : 2.8500
c c2                  : 4
c c3                  : 75000
c smoothing prob.     : 1.000
c seed                : 0
c XOR implementation  : yes
c using:              : random clause selection
c maxTries            : 9223372036854775807
c maxFlips            : 500000000
c timeout             : 900sec
c luby restarts       : yes
c luby base           : 262144
c keep assignement    : yes
c sp sequence:        : 0.000, 0.100, 0.600, 1.000, 0.900, 0.600, 0.800, 0.600, 0.000, 
c -->Starting solver  : 

c UNKNOWN best(   2) current(   4) (4.82000        sec)
c EndStatistics:
c numFlips                      : 13722880 
c numProbWalks                  : 11810643  (86.07%) 
c gradientWalks                 : 1912237   (13.93%) 
c numSmooth                     : 0         (0.00%) 
c numWeight                     : 0         (0.00%) 
c Try CPU Time                  : 4.820   
c totalTries                    : 508      
c totalFlips                    : 500000000
c flips/sec                     : 2472310 
c Total CPU Time                : 202.240 sec
c solved 202 seconds
c parse model from /home/lorenz/SAT2018/s2r_bin/tmp/cp_model_48212
c WARNING: could not find any solution information!
c opened var map /home/lorenz/SAT2018/s2r_bin/tmp/cp_undo_48212.map for reading ... 
c use Riss 7.1
c [STAT] CP3 0.017174 s-ppTime, 0 s-ipTime, 0.0171732 s-ppwTime, 0 s-ipwTime, 9 MB, ok 0.000671 s-ohTime, 
c [STAT] CP3(2) 2823 cls, 0 learnts, -953 rem-cls, 0 rem-learnts, 
c [STAT] UP 6e-06 s, 0 units, 0 cls, 0 lits
c [STAT] SuSi(1) 0.000557 s, 0 cls,  with 0 lits, 0 strengthed 
c [STAT] SuSi(2) 13042 subs-steps, 28829 strenght-steps, 0 increases, 0.001362s strengthening 
c [STAT] EE 0.001319 s, 0 steps 0 ee-lits 0 removedCls, 0 removedSubCls,
c [STAT] EE-gate 9e-05 s, 0 steps, 0.001037 extractGateTime, 
c [STAT] BVE(1) 0.003133 s, 0.002037 s spent on subsimp, 48 vars tested, 48 anticipations, 581 vars skipped, 3042 checks, 
c [STAT] BVE(2) 557 rem cls, with 1690 lits, 0 learnts rem, with 0 lits, 1510 new cls, with 6125 lits, 0 new learnts, with 0 lits, 
c [STAT] BVE(3) 48 vars eliminated, 0 units enqueued, 0 BC removed, with 0 lits, 0 blocked learnts removed, with 0 lits, 
c [STAT] BVE(4) 0 gateDefs, 0 usedGates, 6.7e-05 gateSeconds, 
c [STAT] BVE(5) 47 incElims, 0 keepElims, 1 decElims, 953 totalAdds,
c [STAT] UNHIDE 0.00251 s, 0 cls, 0 totalLits, 0 lits 
c [STAT] UNHIDE(2) 0 prSecs, 0 prSteps, 0 L1units, 0 L2units, 0 L3units, 0 L4units, 0 L5units, 
c [STAT] UNHIDE(3) 0 EE-checks, 0 EE-cands, 0 EEs 
c [STAT] XOR 0.001461s, 0.00137 parse-s, 6.3e-05 reason-s, 
c [STAT] XOR(2) 0 xors, 0 subXors, 0 resXors, 0 clauses, 0 resClauses, 0 resTauts, 0 resStrength, 4689 findChecks, 
c [STAT] XOR(3) 0 steps, 680 empties, 0 listUnits, 0 useLists, 0 xorUnits, 0 eqs, 
c [STAT] XOR(4) 2820 participating, 0.83432 ratio, 0 simDecisions, 0 xorProps, 0 clsProps, 
c [STAT] BCE 0.001739 seconds, 20408 steps, 1168 testLits, 0 remBCE, 0 BCMs, 0 BCMcands, 0 BCMlits, 
c [STAT] CLE 0 remCLE, 0 cleUnits, 
c [STAT] BCE-CLA 0 seconds, 0 steps, 0 testLits, 0 extClss, 0 extLits, 0 possibles, 
c [STAT] FM 0.005897 s, 0.000203 amo-s, 0.01113 fm-s, 0.001162 amt-s, 0 amos, 0 amts, 0 sameUnits, 0 deducedUnits, 0 propUnits, 0 cls, 0 steps, 28672 searchSteps, 0 addDups, 
c [STAT] FM(2) 0 irregulars, 0 pureAmoLits, 0 diff, 0 discards, 0 addedCs, 0 removedCs, 0 newAmos, 0 discardedNewAmos, 
c [STAT] FM(3) 0 newAmoBinCls, 0 newCls, 0 newAlos, 0 newAlks, 0 duplicates, 0 garbageCollecst, 
c [STAT] FM(4) 5e-06 2PrdTime, 0 2PrAmos, 0 2PrLits, 3e-06 dedAloTime, 0 dedAlos, 
c [STAT] FM(5) time: 0.004292 s,steps: 28104 cards: 0 failed: 4693 extLits: 0 redDegree: 0 probes: 5295 conflictProbes: 1 savedPreCls: 0 savedPostCls: 0 units: 12578
c [STAT] DENSE 48 gaps
c Riss 7.1 used 1 seconds with exit code 10
c pp-time: 0 SLS-time: 202  CDCL-time: 1
c solved with: Riss 7.1
 c
c SparrowToRiss 2018
c Adrian Balint, Norbert Manthey
c
c undo: /home/lorenz/SAT2018/s2r_bin/tmp/cp_undo_48212 tmpCNF: /home/lorenz/SAT2018/s2r_bin/tmp/cp_tmpCNF_48212 model: /home/lorenz/SAT2018/s2r_bin/tmp/cp_model_48212 realModel: /home/lorenz/SAT2018/s2r_bin/tmp/model_48212
c preprocessed 0 seconds with exit code 0
c not solved by preprocessor -- do search
c post-process with coprocessor
c WARNING: for repeatability, setting FPU to use double precision
c =================[ riss (core) 7.1.0                    v7.1.0-dirty ]===================================
c | Norbert Manthey. The use of the tool is limited to research only!                                     |
c | Based on Minisat 2.2 and Glucose 2.1  -- thanks!                                                      |
c | Contributors:                                                                                         |
c |      Kilian Gebhardt                                                                                  |
c |      Lucas Kahlert, Franziska Krüger, Aaron Stephan                                                   |
c ============================[ Problem Statistics ]=======================================================
c |                                                                                                       |
c |  Number of variables:                340                                                              |
c |  Number of clauses:                 1870                                                              |
c |  Number of total literals:          5610                                                              |
c |  Parse time:                        0.00 s                                                            |
c |                                                                                                       |
c ========================================[ MAGIC CONSTANTS ]==============================================
c | Constants are supposed to work well together :-)                                                      |
c | however, if you find better choices, please let us known...                                           |
c |-------------------------------------------------------------------------------------------------------|
c |                                |                                |                                     |
c | - Restarts:                    | - Reduce Clause DB:            | - Minimize Asserting:               |
c |   * LBD Queue    :     50      |   * First     :   4000         |    * size <  30                     |
c |   * Trail  Queue :   5000      |   * Inc       :    300         |    * lbd  <   6                     |
c |   * K            :   0.80      |   * Special   :   1000         |                                     |
c |   * R            :   1.40      |   * Protected :  (lbd)< 30     |                                     |
c |                                |                                |                                     |
c =========================================================================================================
c =========================================================================================================
c | solve clauses:         2823  solve variables:          292                                            |
c =========================================================================================================
c ==================================[ Search Statistics (every  10000 conflicts) ]=========================
c |                                                                                                       |
c |          RESTARTS           |          ORIGINAL         |              LEARNT              | Progress |
c |       NB   Blocked  Avg Cfc |    Vars  Clauses Literals |   Red   Learnts    LBD2  Removed |          |
c =========================================================================================================
c =========================================================================================================
c Tinimt-Ratios: ratioCpW: 0.84 ,overhead/Total 0.18 0.18 
c Timing(cpu,wall, in s): total: 0.09 0.10 ,prop: 0.04 0.05 ,analysis: 0.01 0.02 ,ext.Res.: 0.00 0.00 ,reduce: 0.00 0.00 ,overhead 0.02 0.02
c PP-Timing(cpu,wall, in s): preprocessing( 1 ): 0.02 0.02 ,inprocessing (0 ): 0.00 0.00
c Trivial Polarity: True: 0  False: 0
c Learnt At Level 1: 0  Multiple: 0 Units: 0
c LAs: 0.000000 laSeconds 0 LA assigned: 0 tabus: 0, failedLas: 0, maxEvery 0, eeV: 0 eeL: 0 
c otfss: 0 (l1: 0 ),cls: 0 ,units: 0 ,binaries: 0, eagerCandidates: 0
c learning: 3054 cls, 13.688278 avg. size, 9.980354 avg. LBD, 34 maxSize
c res.ext.res.: 0 rer, 0 rerSizeCands, 0 sizeReject, 0 patternReject, 0 bloomReject, 0 maxSize, 0.00 avgSize, 0.00 totalLits, 0 gates
c ER rewrite: 0 cls, 0 lits
c i.cls.strengthening: 0.00 seconds, 0 calls, 0 candidates, 0 droppedBefore, 0 shrinked, 0 shrinkedLits
c bi-asserting: 0 pre-Mini, 0 post-Mini, 0.000 rel-pre, 0.000 rel-post
c search-UHLE: 0 attempts, 0 rem-lits
c revMin: 421 tries 0 succesful 0 dropped 0 cut 0 conflicts
c decisionClauses: 0
c IntervalRestarts: 0
c partial restarts: 0 saved decisions: 0 saved propagations: 0 recursives: 0
c uhd probe: 0.000000 s, 0 L2units, 0 L3units, 0 L4units
c LCM: 0.000000 s, 0 nbLCM, 0 LCMclsAttempts, 0 nbLCMclsSuccess, 0 npConflLCMlits, 0 nbLCMlits, 0 falsified, 0 positiveDrop, 0 litsR1, 0 litsR2
c restarts              : 1 (3054 conflicts in avg)
c blocked restarts      : 0 (multiple: 0) 
c last block at restart : 0
c nb ReduceDB           : 0
c nb removed Clauses    : 0
c nb learnts DL2        : 6
c nb learnts size 2     : 0
c nb learnts size 1     : 0
c conflicts             : 3054           (34629 /sec)
c decisions             : 3632           (0.00 % random) (41183 /sec)
c propagations          : 141838         (1608286 /sec)
c conflict literals     : 41804          (18.89 % deleted)
c nb reduced Clauses    : 0
c Memory used           : 9.00 MB
c CPU time              : 0.088192 s
s SATISFIABLE
v -1 -2 -3 -4 -5 6 7 -8 9 -10 -11 12 13 -14 -15 -16 -17 -18 -19 -20 21 -22 -23 24 -25 -26 -27 -28 -29 30 -31 -32 33 -34 -35 -36 -37 -38 -39 -40 -41 42 43 44 45 -46 47 48 49 -50 -51 52 53 -54 55 -56 57 -58 -59 60 -61 62 -63 64 -65 66 -67 -68 69 -70 71 72 73 -74 75 76 77 -78 79 -80 81 -82 -83 84 -85 -86 -87 88 89 -90 -91 92 -93 94 -95 -96 97 98 -99 100 -101 102 -103 -104 105 106 107 -108 109 -110 111 -112 113 114 -115 116 -117 -118 -119 120 -121 -122 -123 124 125 126 127 -128 -129 -130 -131 -132 133 -134 135 136 137 138 -139 -140 -141 142 -143 144 145 -146 147 148 -149 150 151 -152 153 -154 -155 156 -157 -158 -159 160 -161 -162 -163 -164 165 -166 167 168 169 -170 171 -172 -173 174 175 176 -177 178 -179 -180 -181 -182 -183 -184 -185 -186 -187 188 189 190 191 192 193 194 195 196 -197 198 199 200 201 -202 203 -204 205 -206 -207 -208 -209 -210 -211 -212 -213 214 -215 216 217 -218 219 220 -221 -222 -223 -224 225 -226 -227 -228 -229 230 -231 -232 -233 234 -235 -236 -237 -238 239 240 241 242 243 244 -245 -246 -247 -248 249 250 251 -252 253 254 255 -256 257 -258 -259 -260 261 262 263 264 265 -266 267 -268 269 -270 271 272 273 -274 275 -276 -277 -278 -279 280 -281 282 -283 284 -285 -286 287 288 -289 290 291 292 -293 294 295 296 -297 -298 299 -300 301 -302 303 304 305 -306 -307 308 309 310 -311 -312 313 -314 315 316 -317 318 -319 -320 -321 -322 -323 324 325 -326 327 328 -329 -330 -331 -332 333 334 335 -336 -337 -338 339 340 0

